data/processed_heuristic-threshold/instances/1/8/ds_527_courier_1656/pairwise.tsp
NAME: ds_527_courier_1656
TYPE: TSP
COMMENT: nil
DIMENSION: 9
EDGE_WEIGHT_TYPE: EXPLICIT
EDGE_WEIGHT_FORMAT: FULL_MATRIX
EDGE_WEIGHT_SECTION
9999 3156 2979 3539 3250 2956 50 3270 3027 
3156 9999 706 498 1020 1220 3156 118 5883 
2979 706 9999 1172 401 514 2969 777 5886 
3539 498 1172 9999 1422 1679 3544 400 6148 
3250 1020 401 1422 9999 381 3235 1060 6203 
2956 1220 514 1679 381 9999 2937 1289 5944 
50 3156 2969 3544 3235 2937 9999 3271 3056 
3270 118 777 400 1060 1289 3271 9999 5985 
3027 5883 5886 6148 6203 5944 3056 5985 9999 
