data/processed_heuristic-threshold/instances/1/8/ds_527_courier_1656/pairwise.sol
9
0 6 5 4 2 1 7 3 8 
